c User generated cnf file
p cnf 12 71
7 -4 9 0 
9 11 -1 0 
3 6 -1 0 
9 -4 1 0 
12 -9 10 0 
12 -4 5 0 
2 -6 4 0 
6 1 -3 0 
8 4 -3 0 
6 7 -10 0 
8 9 -8 0 
2 10 -12 0 
10 5 -8 0 
11 -5 5 0 
7 4 -2 0 
9 -9 7 0 
1 -11 3 0 
7 -10 1 0 
7 6 -12 0 
1 -11 10 0 
8 -8 8 0 
4 8 -11 0 
9 4 -11 0 
8 10 -11 0 
5 3 -1 0 
6 -4 9 0 
8 11 -4 0 
7 -11 8 0 
4 5 -7 0 
9 -4 5 0 
1 3 -11 0 
6 -10 8 0 
11 1 -5 0 
7 -10 5 0 
10 3 -12 0 
1 6 -3 0 
11 2 -1 0 
7 -3 12 0 
7 -2 1 0 
8 7 -4 0 
6 -4 8 0 
10 4 -9 0 
4 -8 1 0 
11 -4 6 0 
5 10 -8 0 
5 -1 4 0 
5 -1 10 0 
6 1 -8 0 
6 7 -8 0 
10 -4 3 0 
10 4 -6 0 
2 8 -1 0 
12 10 -11 0 
7 3 -4 0 
11 -5 9 0 
1 8 -4 0 
11 -2 12 0 
4 -8 1 0 
3 7 -6 0 
12 11 -1 0 
6 10 -8 0 
12 -1 12 0 
8 -2 10 0 
8 4 -11 0 
7 2 -9 0 
2 -9 6 0 
2 -8 9 0 
4 -1 1 0 
9 -1 5 0 
4 -10 1 0 
5 2 -6 0 
